p tdp 85 84
61 50
35 38
77 54
45 56
69 22
60 75
50 58
43 45
68 42
66 69
3 84
5 59
16 85
71 74
36 71
72 67
49 36
11 62
63 24
35 52
65 38
3 53
36 12
34 33
7 21
39 23
51 30
66 68
58 6
76 28
46 6
41 76
10 4
32 39
14 44
18 64
84 82
81 19
13 79
29 48
9 4
55 27
7 70
37 31
15 48
76 18
47 73
60 24
27 21
77 35
70 15
74 40
85 8
39 34
1 25
59 22
78 16
20 4
49 1
81 22
53 26
17 64
85 80
60 30
47 72
41 8
57 63
13 14
2 45
13 61
35 73
62 44
83 43
59 77
44 76
60 38
51 9
49 70
83 22
32 30
58 47
79 26
25 72
8 31
